language ESSENCE' 1.0
letting w be 7
letting n be 56
letting noCrates be 1
letting noGoals be 1
letting pInit be 22
letting stps be 8
letting crates be [32]
letting goals be [30]
letting noWalls be 26
letting walls be [0, 1, 2, 3, 4, 5, 6, 7, 13, 14, 20, 21, 27, 28, 34, 35, 41, 42, 48, 49, 50, 51, 52, 53, 54, 55]